nN = 5;
nR = 25;
nH = 2;

a = [[15, 19, 20, 22, 21, 24, 20, 22, 18, 24, 20, 22, 18, 24, 21, 16, 21, 17, 17, 18, 25, 21, 22, 25, 22], [21, 24, 24, 17, 24, 20, 19, 23, 16, 23, 23, 22, 17, 16, 23, 16, 24, 18, 15, 17, 24, 22, 24, 15, 16], [18, 25, 16, 22, 18, 23, 21, 21, 19, 25, 15, 19, 23, 19, 19, 15, 22, 17, 16, 21, 18, 22, 17, 25, 18], [22, 22, 15, 19, 18, 19, 19, 22, 17, 17, 24, 20, 21, 21, 24, 19, 25, 19, 15, 20, 22, 18, 20, 17, 15], [23, 18, 21, 23, 15, 19, 19, 19, 20, 19, 17, 20, 20, 21, 23, 25, 24, 23, 23, 19, 19, 20, 17, 15, 24]];
c = [[[0, 0, 0, 0, 0, 0, 0, 0, 0, 0, 0, 0, 0, 0, 0, 0, 0, 0, 0, 0, 0, 0, 0, 0, 0], [46, 31, 31, 44, 37, 47, 41, 35, 45, 34, 46, 35, 34, 32, 37, 30, 44, 37, 37, 35, 34, 38, 45, 36, 32], [34, 41, 46, 32, 42, 45, 50, 41, 46, 40, 45, 44, 36, 50, 38, 34, 41, 41, 33, 45, 43, 43, 34, 43, 45], [37, 33, 39, 41, 33, 43, 42, 36, 32, 49, 50, 45, 42, 38, 39, 33, 49, 50, 50, 33, 41, 37, 41, 50, 37], [33, 47, 40, 32, 34, 34, 32, 39, 47, 30, 48, 43, 46, 49, 45, 42, 50, 41, 35, 44, 39, 36, 39, 37, 47]], [[0, 0, 0, 0, 0, 0, 0, 0, 0, 0, 0, 0, 0, 0, 0, 0, 0, 0, 0, 0, 0, 0, 0, 0, 0], [0, 0, 0, 0, 0, 0, 0, 0, 0, 0, 0, 0, 0, 0, 0, 0, 0, 0, 0, 0, 0, 0, 0, 0, 0], [30, 50, 30, 43, 33, 37, 31, 39, 35, 38, 30, 41, 40, 42, 30, 31, 44, 50, 31, 47, 49, 31, 35, 31, 37], [31, 40, 47, 30, 36, 38, 46, 41, 42, 44, 48, 40, 45, 45, 34, 34, 40, 30, 40, 50, 43, 32, 39, 43, 38], [33, 47, 36, 46, 36, 35, 38, 47, 36, 43, 40, 40, 45, 32, 46, 36, 50, 41, 38, 32, 41, 45, 33, 34, 32]], [[0, 0, 0, 0, 0, 0, 0, 0, 0, 0, 0, 0, 0, 0, 0, 0, 0, 0, 0, 0, 0, 0, 0, 0, 0], [0, 0, 0, 0, 0, 0, 0, 0, 0, 0, 0, 0, 0, 0, 0, 0, 0, 0, 0, 0, 0, 0, 0, 0, 0], [0, 0, 0, 0, 0, 0, 0, 0, 0, 0, 0, 0, 0, 0, 0, 0, 0, 0, 0, 0, 0, 0, 0, 0, 0], [39, 43, 39, 31, 45, 30, 41, 35, 40, 45, 30, 32, 34, 50, 35, 50, 40, 33, 37, 47, 48, 42, 35, 44, 48], [46, 30, 47, 47, 38, 48, 36, 33, 35, 42, 34, 45, 44, 48, 48, 30, 40, 45, 38, 42, 48, 31, 48, 50, 40]], [[0, 0, 0, 0, 0, 0, 0, 0, 0, 0, 0, 0, 0, 0, 0, 0, 0, 0, 0, 0, 0, 0, 0, 0, 0], [0, 0, 0, 0, 0, 0, 0, 0, 0, 0, 0, 0, 0, 0, 0, 0, 0, 0, 0, 0, 0, 0, 0, 0, 0], [0, 0, 0, 0, 0, 0, 0, 0, 0, 0, 0, 0, 0, 0, 0, 0, 0, 0, 0, 0, 0, 0, 0, 0, 0], [0, 0, 0, 0, 0, 0, 0, 0, 0, 0, 0, 0, 0, 0, 0, 0, 0, 0, 0, 0, 0, 0, 0, 0, 0], [47, 37, 40, 38, 49, 33, 43, 35, 34, 34, 34, 49, 46, 37, 43, 43, 37, 50, 39, 46, 34, 48, 30, 40, 33]], [[0, 0, 0, 0, 0, 0, 0, 0, 0, 0, 0, 0, 0, 0, 0, 0, 0, 0, 0, 0, 0, 0, 0, 0, 0], [0, 0, 0, 0, 0, 0, 0, 0, 0, 0, 0, 0, 0, 0, 0, 0, 0, 0, 0, 0, 0, 0, 0, 0, 0], [0, 0, 0, 0, 0, 0, 0, 0, 0, 0, 0, 0, 0, 0, 0, 0, 0, 0, 0, 0, 0, 0, 0, 0, 0], [0, 0, 0, 0, 0, 0, 0, 0, 0, 0, 0, 0, 0, 0, 0, 0, 0, 0, 0, 0, 0, 0, 0, 0, 0], [0, 0, 0, 0, 0, 0, 0, 0, 0, 0, 0, 0, 0, 0, 0, 0, 0, 0, 0, 0, 0, 0, 0, 0, 0]]];

q = [[[19, 123], [14, 120], [6, 119], [10, 112], [6, 120], [20, 122], [16, 105], [12, 107], [17, 119], [23, 119], [7, 109], [23, 115], [20, 107], [15, 116], [7, 110], [17, 105], [7, 124], [25, 115], [10, 118], [17, 117], [10, 123], [6, 113], [10, 119], [23, 108], [12, 118]], [[18, 112], [8, 122], [17, 106], [19, 112], [19, 118], [24, 122], [20, 114], [10, 120], [11, 112], [14, 105], [17, 124], [19, 125], [23, 110], [24, 116], [7, 117], [25, 116], [24, 112], [24, 122], [8, 124], [17, 122], [9, 114], [22, 106], [8, 105], [11, 120], [11, 124]], [[14, 110], [15, 121], [18, 107], [22, 124], [9, 123], [8, 105], [10, 119], [21, 115], [17, 108], [18, 123], [9, 116], [19, 121], [6, 124], [25, 121], [17, 119], [6, 119], [12, 122], [6, 122], [12, 119], [15, 125], [21, 116], [12, 119], [14, 113], [19, 105], [7, 125]], [[6, 117], [5, 122], [5, 125], [23, 119], [12, 118], [6, 111], [11, 109], [16, 118], [13, 122], [20, 121], [12, 124], [9, 120], [24, 113], [16, 113], [22, 116], [12, 111], [8, 119], [24, 121], [21, 121], [13, 125], [8, 125], [18, 125], [13, 111], [17, 105], [21, 117]], [[18, 113], [25, 119], [20, 109], [18, 109], [20, 119], [8, 109], [18, 109], [24, 108], [11, 121], [9, 116], [14, 108], [23, 122], [18, 113], [19, 110], [11, 120], [5, 122], [12, 110], [11, 123], [17, 108], [16, 118], [22, 119], [17, 106], [6, 119], [16, 118], [24, 122]]];
Q = [[56, 462], [65, 464], [56, 471], [56, 472], [64, 460]];
